 &control
    calculation='scf'
    restart_mode='from_scratch',
    pseudo_dir='../pseudo'
    outdir='./tmp'
    prefix='AlAs',
 /
 &system    
    ibrav = 2, 
    celldm(1) = 10.50, 
    nat = 2, 
    ntyp = 2,
    ecutwfc = 35
ecutrho = 280
 /
 &electrons
    conv_thr =  1.0d-10
    mixing_beta = 0.7
 /
ATOMIC_SPECIES
 Al  26.98  Al.pbe-n-kjpaw_psl.1.0.0.UPF
 As  74.92  As.pbe-n-rrkjus_psl.0.2.UPF
ATOMIC_POSITIONS 
 Al 0.00 0.00 0.00
 As 0.25 0.25 0.25
K_POINTS automatic
2 2 2 0 0 0
