 &input
   fildyn='Si.dyn', 
   zasr='simple', 
   flfrc='Si222.fc'
 /
